c Reduced graph for GEOM80a generated by Cyril Grelier
p edge 71 540
e 1 2
e 1 3
e 1 6
e 1 7
e 1 10
e 1 12
e 1 25
e 1 27
e 1 36
e 1 38
e 1 40
e 1 49
e 1 50
e 1 51
e 1 54
e 1 59
e 1 71
e 2 3
e 2 6
e 2 7
e 2 10
e 2 12
e 2 25
e 2 27
e 2 36
e 2 38
e 2 40
e 2 49
e 2 50
e 2 51
e 2 54
e 2 59
e 3 5
e 3 10
e 3 12
e 3 25
e 3 27
e 3 36
e 3 40
e 3 46
e 3 49
e 3 50
e 3 54
e 3 59
e 3 63
e 4 8
e 4 15
e 4 21
e 4 22
e 4 28
e 4 30
e 4 39
e 4 42
e 4 45
e 4 56
e 4 65
e 5 10
e 5 25
e 5 27
e 5 40
e 5 46
e 5 49
e 5 50
e 5 59
e 5 63
e 6 7
e 6 10
e 6 17
e 6 25
e 6 27
e 6 33
e 6 36
e 6 43
e 6 49
e 6 50
e 6 51
e 6 54
e 6 55
e 6 62
e 6 71
e 7 10
e 7 18
e 7 25
e 7 27
e 7 36
e 7 38
e 7 40
e 7 49
e 7 50
e 7 51
e 7 54
e 7 59
e 7 62
e 7 71
e 8 15
e 8 18
e 8 21
e 8 22
e 8 28
e 8 30
e 8 38
e 8 39
e 8 42
e 8 45
e 8 51
e 8 56
e 8 62
e 8 65
e 8 68
e 9 15
e 9 19
e 9 20
e 9 21
e 9 28
e 9 33
e 9 39
e 9 47
e 9 56
e 9 60
e 9 61
e 9 65
e 9 66
e 9 67
e 9 68
e 9 69
e 10 25
e 10 27
e 10 40
e 10 46
e 10 49
e 10 50
e 10 54
e 10 59
e 10 63
e 11 13
e 11 16
e 11 23
e 11 24
e 11 35
e 11 37
e 11 43
e 11 55
e 11 64
e 12 27
e 12 36
e 12 40
e 12 54
e 12 59
e 13 16
e 13 23
e 13 24
e 13 35
e 14 16
e 14 17
e 14 23
e 14 26
e 14 29
e 14 31
e 14 32
e 14 33
e 14 34
e 14 35
e 14 37
e 14 41
e 14 43
e 14 47
e 14 48
e 14 52
e 14 53
e 14 55
e 14 57
e 14 64
e 15 20
e 15 21
e 15 22
e 15 28
e 15 30
e 15 39
e 15 45
e 15 56
e 15 60
e 15 61
e 15 65
e 15 67
e 15 68
e 15 69
e 16 17
e 16 23
e 16 24
e 16 35
e 16 43
e 16 49
e 16 55
e 16 63
e 16 64
e 16 71
e 17 25
e 17 33
e 17 35
e 17 43
e 17 49
e 17 50
e 17 55
e 17 64
e 17 71
e 18 22
e 18 30
e 18 38
e 18 39
e 18 42
e 18 51
e 18 62
e 18 65
e 19 20
e 19 26
e 19 31
e 19 32
e 19 44
e 19 47
e 19 48
e 19 53
e 19 57
e 19 58
e 19 60
e 19 61
e 19 66
e 19 67
e 19 68
e 19 69
e 19 70
e 20 31
e 20 33
e 20 39
e 20 47
e 20 48
e 20 56
e 20 60
e 20 61
e 20 65
e 20 66
e 20 67
e 20 68
e 20 69
e 21 22
e 21 28
e 21 30
e 21 39
e 21 42
e 21 45
e 21 56
e 21 61
e 21 65
e 21 68
e 22 28
e 22 30
e 22 39
e 22 42
e 22 45
e 22 56
e 22 62
e 22 65
e 23 24
e 23 29
e 23 34
e 23 35
e 23 37
e 23 52
e 23 64
e 24 35
e 24 37
e 25 27
e 25 36
e 25 40
e 25 43
e 25 46
e 25 49
e 25 50
e 25 51
e 25 54
e 25 55
e 25 59
e 25 63
e 25 71
e 26 29
e 26 31
e 26 32
e 26 34
e 26 35
e 26 37
e 26 41
e 26 44
e 26 47
e 26 48
e 26 52
e 26 53
e 26 57
e 26 58
e 26 64
e 26 66
e 26 70
e 27 36
e 27 40
e 27 46
e 27 49
e 27 50
e 27 51
e 27 54
e 27 59
e 27 63
e 28 30
e 28 39
e 28 42
e 28 45
e 28 56
e 28 61
e 28 65
e 28 68
e 29 31
e 29 32
e 29 34
e 29 35
e 29 37
e 29 41
e 29 48
e 29 52
e 29 53
e 29 57
e 29 64
e 30 39
e 30 42
e 30 45
e 30 56
e 30 62
e 30 65
e 31 32
e 31 33
e 31 34
e 31 35
e 31 37
e 31 41
e 31 44
e 31 47
e 31 48
e 31 52
e 31 53
e 31 57
e 31 58
e 31 64
e 31 66
e 31 67
e 31 69
e 31 70
e 32 34
e 32 37
e 32 41
e 32 44
e 32 47
e 32 48
e 32 52
e 32 53
e 32 57
e 32 58
e 32 64
e 32 66
e 32 70
e 33 39
e 33 43
e 33 47
e 33 48
e 33 51
e 33 55
e 33 64
e 33 67
e 33 68
e 33 69
e 33 71
e 34 35
e 34 37
e 34 41
e 34 47
e 34 48
e 34 52
e 34 53
e 34 57
e 34 58
e 34 64
e 34 70
e 35 37
e 35 43
e 35 52
e 35 55
e 35 64
e 36 38
e 36 40
e 36 49
e 36 50
e 36 51
e 36 54
e 36 59
e 37 41
e 37 52
e 37 53
e 37 57
e 37 64
e 38 42
e 38 51
e 38 54
e 38 62
e 39 42
e 39 45
e 39 51
e 39 56
e 39 61
e 39 62
e 39 65
e 39 67
e 39 68
e 40 46
e 40 49
e 40 50
e 40 54
e 40 59
e 40 63
e 41 44
e 41 47
e 41 48
e 41 52
e 41 53
e 41 57
e 41 58
e 41 66
e 41 70
e 42 45
e 42 51
e 42 56
e 42 62
e 42 65
e 43 49
e 43 50
e 43 55
e 43 63
e 43 64
e 43 71
e 44 47
e 44 48
e 44 53
e 44 57
e 44 58
e 44 60
e 44 66
e 44 69
e 44 70
e 45 56
e 45 65
e 46 49
e 46 50
e 46 59
e 46 63
e 47 48
e 47 52
e 47 53
e 47 57
e 47 58
e 47 60
e 47 64
e 47 66
e 47 67
e 47 69
e 47 70
e 48 52
e 48 53
e 48 57
e 48 58
e 48 60
e 48 64
e 48 66
e 48 67
e 48 69
e 48 70
e 49 50
e 49 51
e 49 54
e 49 55
e 49 63
e 49 71
e 50 51
e 50 54
e 50 55
e 50 59
e 50 63
e 50 71
e 51 54
e 51 62
e 51 71
e 52 53
e 52 57
e 52 58
e 52 64
e 52 66
e 52 70
e 53 57
e 53 58
e 53 64
e 53 66
e 53 70
e 54 59
e 55 64
e 55 71
e 56 60
e 56 61
e 56 62
e 56 65
e 56 67
e 56 68
e 57 58
e 57 66
e 57 70
e 58 66
e 58 69
e 58 70
e 60 61
e 60 65
e 60 66
e 60 67
e 60 68
e 60 69
e 61 65
e 61 67
e 61 68
e 61 69
e 62 65
e 64 71
e 65 67
e 65 68
e 66 67
e 66 69
e 66 70
e 67 68
e 67 69
e 68 69
